c description: Tseitin formula on , with odd charge
c generator: CNFgen (0.9.0)
c copyright: (C) 2012-2020 Massimo Lauria <massimo.lauria@uniroma1.it>
c url: https://massimolauria.net/cnfgen
c
p cnf 20 133
1 2 3 4 5 6 0
1 2 3 4 -5 -6 0
1 2 3 -4 5 -6 0
1 2 3 -4 -5 6 0
1 2 -3 4 5 -6 0
1 2 -3 4 -5 6 0
1 2 -3 -4 5 6 0
1 2 -3 -4 -5 -6 0
1 -2 3 4 5 -6 0
1 -2 3 4 -5 6 0
1 -2 3 -4 5 6 0
1 -2 3 -4 -5 -6 0
1 -2 -3 4 5 6 0
1 -2 -3 4 -5 -6 0
1 -2 -3 -4 5 -6 0
1 -2 -3 -4 -5 6 0
-1 2 3 4 5 -6 0
-1 2 3 4 -5 6 0
-1 2 3 -4 5 6 0
-1 2 3 -4 -5 -6 0
-1 2 -3 4 5 6 0
-1 2 -3 4 -5 -6 0
-1 2 -3 -4 5 -6 0
-1 2 -3 -4 -5 6 0
-1 -2 3 4 5 6 0
-1 -2 3 4 -5 -6 0
-1 -2 3 -4 5 -6 0
-1 -2 3 -4 -5 6 0
-1 -2 -3 4 5 -6 0
-1 -2 -3 4 -5 6 0
-1 -2 -3 -4 5 6 0
-1 -2 -3 -4 -5 -6 0
1 -7 0
-1 7 0
8 -9 0
-8 9 0
2 7 10 11 -12 0
2 7 10 -11 12 0
2 7 -10 11 12 0
2 7 -10 -11 -12 0
2 -7 10 11 12 0
2 -7 10 -11 -12 0
2 -7 -10 11 -12 0
2 -7 -10 -11 12 0
-2 7 10 11 12 0
-2 7 10 -11 -12 0
-2 7 -10 11 -12 0
-2 7 -10 -11 12 0
-2 -7 10 11 -12 0
-2 -7 10 -11 12 0
-2 -7 -10 11 12 0
-2 -7 -10 -11 -12 0
3 13 14 -15 0
3 13 -14 15 0
3 -13 14 15 0
3 -13 -14 -15 0
-3 13 14 15 0
-3 13 -14 -15 0
-3 -13 14 -15 0
-3 -13 -14 15 0
8 10 13 16 -17 0
8 10 13 -16 17 0
8 10 -13 16 17 0
8 10 -13 -16 -17 0
8 -10 13 16 17 0
8 -10 13 -16 -17 0
8 -10 -13 16 -17 0
8 -10 -13 -16 17 0
-8 10 13 16 17 0
-8 10 13 -16 -17 0
-8 10 -13 16 -17 0
-8 10 -13 -16 17 0
-8 -10 13 16 -17 0
-8 -10 13 -16 17 0
-8 -10 -13 16 17 0
-8 -10 -13 -16 -17 0
4 16 18 -19 0
4 16 -18 19 0
4 -16 18 19 0
4 -16 -18 -19 0
-4 16 18 19 0
-4 16 -18 -19 0
-4 -16 18 -19 0
-4 -16 -18 19 0
5 11 17 18 -20 0
5 11 17 -18 20 0
5 11 -17 18 20 0
5 11 -17 -18 -20 0
5 -11 17 18 20 0
5 -11 17 -18 -20 0
5 -11 -17 18 -20 0
5 -11 -17 -18 20 0
-5 11 17 18 20 0
-5 11 17 -18 -20 0
-5 11 -17 18 -20 0
-5 11 -17 -18 20 0
-5 -11 17 18 -20 0
-5 -11 17 -18 20 0
-5 -11 -17 18 20 0
-5 -11 -17 -18 -20 0
-14 0
6 9 12 15 19 -20 0
6 9 12 15 -19 20 0
6 9 12 -15 19 20 0
6 9 12 -15 -19 -20 0
6 9 -12 15 19 20 0
6 9 -12 15 -19 -20 0
6 9 -12 -15 19 -20 0
6 9 -12 -15 -19 20 0
6 -9 12 15 19 20 0
6 -9 12 15 -19 -20 0
6 -9 12 -15 19 -20 0
6 -9 12 -15 -19 20 0
6 -9 -12 15 19 -20 0
6 -9 -12 15 -19 20 0
6 -9 -12 -15 19 20 0
6 -9 -12 -15 -19 -20 0
-6 9 12 15 19 20 0
-6 9 12 15 -19 -20 0
-6 9 12 -15 19 -20 0
-6 9 12 -15 -19 20 0
-6 9 -12 15 19 -20 0
-6 9 -12 15 -19 20 0
-6 9 -12 -15 19 20 0
-6 9 -12 -15 -19 -20 0
-6 -9 12 15 19 -20 0
-6 -9 12 15 -19 20 0
-6 -9 12 -15 19 20 0
-6 -9 12 -15 -19 -20 0
-6 -9 -12 15 19 20 0
-6 -9 -12 15 -19 -20 0
-6 -9 -12 -15 19 -20 0
-6 -9 -12 -15 -19 20 0